g3 0 1 0	# problem d3n16R4R9d01d1
 16 12 1 0 4	# vars, constraints, objectives, ranges, eqns
 5 1	# nonlinear constraints, objectives
 0 0	# network constraints: nonlinear, linear
 16 16 16	# nonlinear vars in constraints, objectives, both
 0 0 0 1	# linear network variables; functions; arith, flags
 0 0 0 0 0	# discrete variables: binary, integer, nonlinear (b,c,o)
 192 16	# nonzeros in Jacobian, gradients
 0 0	# max name lengths: constraints, variables
 0 0 0 0 0	# common exprs: b,c,o,c1,o1
b
0 0.08 2.88
0 0.91 2.17
0 0.97 2.33
0 0.97 2.29
0 0.13 2.17
0 0.18 2.67
0 0.38 2.94
0 0.21 2.94
0 0.5 2.88
0 0.1 2.11
0 0.37 2.1
0 0.89 2.52
0 0.34 2.99
0 0.53 2.48
0 0.37 2.54
0 0.99 2.76
r
2 230.521
2 1351.74
2 166.481
2 1312.88
2 158.339
4 108.475
4 87.902
4 77.947
4 104.403
2 125.43
2 92.511
2 78.09
C0
o54
11
o2
o2
n6.26
v0
v9
o2
o2
n1.81
v1
v3
o16
o2
o2
n6.53
v1
v12
o2
o2
n2.72
v3
v5
o2
o2
n7.84
v3
v12
o2
o2
n2.17
v4
v13
o2
o2
n9.56
v5
v8
o2
o2
n8.82
v6
v11
o2
o2
n9.2
v8
v13
o2
o2
n5.46
v10
v15
o2
o2
n8.19
v12
v15
C1
o54
95
o2
o2
n1.54
v0
v9
o2
o2
n5.42
v1
v3
o2
o2
n8.78
v1
v12
o2
o2
n6.86
v3
v5
o16
o2
o2
n4.23
v3
v12
o2
o2
n2.19
v4
v13
o2
o2
n6.29
v5
v8
o2
o2
n3.01
v6
v11
o2
o2
n2.18
v8
v13
o2
o2
n9.53
v10
v15
o2
o2
n2.48
v12
v15
o2
o2
o2
n4.46
v0
v0
v4
o2
o2
o2
n8.42
v0
v1
v4
o2
o2
o2
n0.95
v0
v1
v15
o2
o2
o2
n5.92
v0
v4
v14
o2
o2
o2
n1.14
v0
v5
v8
o2
o2
o2
n5.36
v0
v5
v15
o2
o2
o2
n7.02
v0
v6
v12
o16
o2
o2
o2
n1.28
v0
v8
v11
o2
o2
o2
n9.96
v0
v8
v12
o2
o2
o2
n0.95
v0
v8
v15
o2
o2
o2
n0.59
v0
v11
v11
o2
o2
o2
n6.01
v0
v12
v12
o2
o2
o2
n5.65
v1
v1
v2
o2
o2
o2
n6.05
v1
v1
v10
o16
o2
o2
o2
n3.19
v1
v2
v4
o2
o2
o2
n8.4
v1
v3
v5
o2
o2
o2
n2.85
v1
v3
v8
o2
o2
o2
n3.04
v1
v3
v13
o16
o2
o2
o2
n2.75
v1
v4
v9
o2
o2
o2
n6.8
v1
v4
v15
o16
o2
o2
o2
n9.41
v1
v5
v6
o2
o2
o2
n5.78
v1
v5
v10
o2
o2
o2
n2.55
v1
v6
v13
o2
o2
o2
n0.18
v1
v7
v12
o2
o2
o2
n0.96
v1
v9
v12
o2
o2
o2
n0.63
v1
v10
v14
o2
o2
o2
n1.4
v1
v12
v12
o2
o2
o2
n9.83
v1
v13
v13
o2
o2
o2
n6.74
v2
v3
v4
o2
o2
o2
n8.93
v2
v4
v5
o2
o2
o2
n5.12
v2
v4
v6
o2
o2
o2
n2.39
v2
v4
v7
o2
o2
o2
n6.65
v2
v4
v12
o2
o2
o2
n0.59
v2
v5
v6
o2
o2
o2
n9.16
v2
v8
v13
o2
o2
o2
n4.13
v2
v10
v10
o2
o2
o2
n9.6
v2
v13
v14
o2
o2
o2
n8.97
v2
v14
v14
o2
o2
o2
n2.65
v2
v15
v15
o2
o2
o2
n6.42
v3
v5
v8
o16
o2
o2
o2
n3.08
v3
v7
v7
o16
o2
o2
o2
n7.02
v3
v7
v10
o2
o2
o2
n3.49
v4
v4
v15
o2
o2
o2
n2.51
v4
v5
v10
o2
o2
o2
n3.92
v4
v7
v9
o2
o2
o2
n4.68
v4
v7
v13
o2
o2
o2
n4.88
v4
v8
v11
o2
o2
o2
n5.54
v4
v9
v13
o2
o2
o2
n0.45
v5
v5
v8
o16
o2
o2
o2
n7.48
v5
v7
v7
o2
o2
o2
n2.96
v5
v7
v11
o2
o2
o2
n7.79
v5
v7
v12
o2
o2
o2
n5.77
v5
v8
v12
o2
o2
o2
n6.44
v5
v8
v14
o2
o2
o2
n5.79
v5
v9
v15
o2
o2
o2
n1.19
v5
v14
v15
o2
o2
o2
n2.3
v6
v6
v7
o2
o2
o2
n9.21
v6
v6
v14
o2
o2
o2
n3.52
v6
v9
v13
o2
o2
o2
n9.08
v6
v9
v14
o2
o2
o2
n7.66
v6
v9
v15
o2
o2
o2
n2.45
v6
v10
v15
o2
o2
o2
n9.86
v6
v11
v12
o2
o2
o2
n9.21
v6
v12
v12
o2
o2
o2
n1.68
v6
v15
v15
o2
o2
o2
n5.44
v7
v8
v12
o2
o2
o2
n4.73
v7
v10
v13
o16
o2
o2
o2
n8
v7
v11
v15
o2
o2
o2
n4.78
v7
v12
v13
o2
o2
o2
n4.99
v7
v12
v14
o2
o2
o2
n8.27
v8
v8
v12
o2
o2
o2
n6.06
v8
v8
v15
o2
o2
o2
n7.47
v8
v11
v12
o2
o2
o2
n1.58
v8
v12
v15
o2
o2
o2
n5.99
v8
v13
v14
o16
o2
o2
o2
n4.92
v9
v11
v11
o2
o2
o2
n1.23
v9
v11
v15
o2
o2
o2
n6.69
v10
v10
v11
o2
o2
o2
n5.23
v10
v10
v15
o2
o2
o2
n5.1
v10
v11
v11
o2
o2
o2
n0.57
v11
v11
v13
o2
o2
o2
n1.51
v11
v12
v12
o2
o2
o2
n2.84
v12
v12
v13
o2
o2
o2
n5.27
v13
v15
v15
C2
o54
11
o2
o2
n9.72
v0
v9
o2
o2
n4.94
v1
v3
o2
o2
n1.66
v1
v12
o2
o2
n1.17
v3
v5
o2
o2
n8.97
v3
v12
o2
o2
n3.31
v4
v13
o2
o2
n0.01
v5
v8
o2
o2
n6.36
v6
v11
o16
o2
o2
n5.85
v8
v13
o2
o2
n2.66
v10
v15
o2
o2
n2.8
v12
v15
C3
o54
95
o2
o2
n5.6
v0
v9
o2
o2
n5.57
v1
v3
o2
o2
n3.76
v1
v12
o16
o2
o2
n0.11
v3
v5
o2
o2
n6.33
v3
v12
o2
o2
n9.69
v4
v13
o2
o2
n4.21
v5
v8
o2
o2
n7.29
v6
v11
o2
o2
n7.21
v8
v13
o2
o2
n7.92
v10
v15
o2
o2
n1.52
v12
v15
o2
o2
o2
n8.63
v0
v0
v4
o2
o2
o2
n2.71
v0
v1
v4
o2
o2
o2
n8
v0
v1
v15
o2
o2
o2
n3.3
v0
v4
v14
o2
o2
o2
n6.52
v0
v5
v8
o2
o2
o2
n8.89
v0
v5
v15
o2
o2
o2
n4.55
v0
v6
v12
o2
o2
o2
n2
v0
v8
v11
o16
o2
o2
o2
n9.29
v0
v8
v12
o2
o2
o2
n7.66
v0
v8
v15
o2
o2
o2
n7.47
v0
v11
v11
o2
o2
o2
n9.76
v0
v12
v12
o16
o2
o2
o2
n5.15
v1
v1
v2
o2
o2
o2
n2.32
v1
v1
v10
o2
o2
o2
n1.44
v1
v2
v4
o2
o2
o2
n4.59
v1
v3
v5
o2
o2
o2
n7.37
v1
v3
v8
o2
o2
o2
n4.28
v1
v3
v13
o2
o2
o2
n6.8
v1
v4
v9
o2
o2
o2
n7.7
v1
v4
v15
o2
o2
o2
n0.73
v1
v5
v6
o2
o2
o2
n1.11
v1
v5
v10
o16
o2
o2
o2
n1.61
v1
v6
v13
o2
o2
o2
n2.17
v1
v7
v12
o2
o2
o2
n9.25
v1
v9
v12
o2
o2
o2
n5.73
v1
v10
v14
o2
o2
o2
n4.91
v1
v12
v12
o2
o2
o2
n2.81
v1
v13
v13
o2
o2
o2
n5.06
v2
v3
v4
o16
o2
o2
o2
n7
v2
v4
v5
o2
o2
o2
n1.38
v2
v4
v6
o2
o2
o2
n7.3
v2
v4
v7
o16
o2
o2
o2
n8.68
v2
v4
v12
o2
o2
o2
n1.42
v2
v5
v6
o16
o2
o2
o2
n7.11
v2
v8
v13
o2
o2
o2
n8.6
v2
v10
v10
o2
o2
o2
n0.41
v2
v13
v14
o16
o2
o2
o2
n6.14
v2
v14
v14
o2
o2
o2
n6.65
v2
v15
v15
o2
o2
o2
n8.52
v3
v5
v8
o2
o2
o2
n3.04
v3
v7
v7
o2
o2
o2
n3.26
v3
v7
v10
o2
o2
o2
n1.39
v4
v4
v15
o2
o2
o2
n2.66
v4
v5
v10
o2
o2
o2
n5.8
v4
v7
v9
o2
o2
o2
n5.3
v4
v7
v13
o2
o2
o2
n9.08
v4
v8
v11
o2
o2
o2
n6.54
v4
v9
v13
o2
o2
o2
n9.55
v5
v5
v8
o2
o2
o2
n1.97
v5
v7
v7
o2
o2
o2
n4.68
v5
v7
v11
o2
o2
o2
n2.94
v5
v7
v12
o2
o2
o2
n3.23
v5
v8
v12
o16
o2
o2
o2
n8.17
v5
v8
v14
o16
o2
o2
o2
n2.41
v5
v9
v15
o2
o2
o2
n0.57
v5
v14
v15
o2
o2
o2
n1.56
v6
v6
v7
o2
o2
o2
n3.27
v6
v6
v14
o2
o2
o2
n9.08
v6
v9
v13
o2
o2
o2
n3.94
v6
v9
v14
o2
o2
o2
n3.96
v6
v9
v15
o2
o2
o2
n1.57
v6
v10
v15
o2
o2
o2
n8.66
v6
v11
v12
o2
o2
o2
n4.51
v6
v12
v12
o2
o2
o2
n4.78
v6
v15
v15
o2
o2
o2
n4.13
v7
v8
v12
o2
o2
o2
n8.11
v7
v10
v13
o2
o2
o2
n3.02
v7
v11
v15
o2
o2
o2
n4.71
v7
v12
v13
o2
o2
o2
n1.71
v7
v12
v14
o16
o2
o2
o2
n4.43
v8
v8
v12
o2
o2
o2
n3.2
v8
v8
v15
o2
o2
o2
n3.52
v8
v11
v12
o2
o2
o2
n9.08
v8
v12
v15
o2
o2
o2
n2.98
v8
v13
v14
o16
o2
o2
o2
n6.59
v9
v11
v11
o2
o2
o2
n3.96
v9
v11
v15
o2
o2
o2
n0.46
v10
v10
v11
o2
o2
o2
n7.08
v10
v10
v15
o2
o2
o2
n8.71
v10
v11
v11
o2
o2
o2
n6.98
v11
v11
v13
o2
o2
o2
n6.38
v11
v12
v12
o2
o2
o2
n8.8
v12
v12
v13
o2
o2
o2
n6.42
v13
v15
v15
C4
o54
11
o2
o2
n3.26
v0
v9
o2
o2
n1.11
v1
v3
o2
o2
n5.6
v1
v12
o2
o2
n2.73
v3
v5
o2
o2
n4.24
v3
v12
o2
o2
n9.36
v4
v13
o2
o2
n4.02
v5
v8
o2
o2
n1.73
v6
v11
o2
o2
n6.2
v8
v13
o2
o2
n4.2
v10
v15
o2
o2
n6.96
v12
v15
C5
n0
C6
n0
C7
n0
C8
n0
C9
n0
C10
n0
C11
n0
O0 0
o54
95
o2
o2
n1.97
v0
v9
o2
o2
n6.63
v1
v3
o2
o2
n5.66
v1
v12
o2
o2
n3.89
v3
v5
o2
o2
n4.52
v3
v12
o2
o2
n7.87
v4
v13
o2
o2
n1.4
v5
v8
o2
o2
n8.37
v6
v11
o2
o2
n2.97
v8
v13
o2
o2
n1.22
v10
v15
o2
o2
n2.78
v12
v15
o2
o2
o2
n7.86
v0
v0
v4
o2
o2
o2
n9.95
v0
v1
v4
o2
o2
o2
n6.42
v0
v1
v15
o2
o2
o2
n1.46
v0
v4
v14
o2
o2
o2
n4.59
v0
v5
v8
o2
o2
o2
n0.76
v0
v5
v15
o2
o2
o2
n9.73
v0
v6
v12
o16
o2
o2
o2
n0.54
v0
v8
v11
o2
o2
o2
n6.25
v0
v8
v12
o2
o2
o2
n2.48
v0
v8
v15
o16
o2
o2
o2
n5.89
v0
v11
v11
o2
o2
o2
n1.8
v0
v12
v12
o2
o2
o2
n1.02
v1
v1
v2
o2
o2
o2
n9.33
v1
v1
v10
o16
o2
o2
o2
n6.27
v1
v2
v4
o2
o2
o2
n9.14
v1
v3
v5
o2
o2
o2
n8.92
v1
v3
v8
o2
o2
o2
n4.23
v1
v3
v13
o2
o2
o2
n3.27
v1
v4
v9
o2
o2
o2
n8.36
v1
v4
v15
o2
o2
o2
n9.3
v1
v5
v6
o2
o2
o2
n6.7
v1
v5
v10
o2
o2
v1
v6
v13
o2
o2
o2
n3.1
v1
v7
v12
o2
o2
o2
n4.63
v1
v9
v12
o16
o2
o2
o2
n6.91
v1
v10
v14
o2
o2
o2
n2.2
v1
v12
v12
o2
o2
o2
n7.05
v1
v13
v13
o2
o2
o2
n0.56
v2
v3
v4
o2
o2
o2
n6.11
v2
v4
v5
o2
o2
o2
n1.36
v2
v4
v6
o2
o2
o2
n2.48
v2
v4
v7
o16
o2
o2
o2
n2.19
v2
v4
v12
o2
o2
o2
n3.13
v2
v5
v6
o2
o2
o2
n4.22
v2
v8
v13
o2
o2
o2
n4.93
v2
v10
v10
o16
o2
o2
o2
n6.64
v2
v13
v14
o2
o2
o2
n7.33
v2
v14
v14
o2
o2
o2
n3.33
v2
v15
v15
o2
o2
o2
n4.19
v3
v5
v8
o16
o2
o2
o2
n1.8
v3
v7
v7
o2
o2
o2
n7.62
v3
v7
v10
o2
o2
o2
n0.04
v4
v4
v15
o16
o2
o2
o2
n1.54
v4
v5
v10
o2
o2
o2
n1.37
v4
v7
v9
o2
o2
o2
n7.88
v4
v7
v13
o2
o2
o2
n2.65
v4
v8
v11
o2
o2
o2
n3.19
v4
v9
v13
o2
o2
o2
n6.21
v5
v5
v8
o2
o2
o2
n8.49
v5
v7
v7
o2
o2
o2
n0.8
v5
v7
v11
o2
o2
o2
n0.07
v5
v7
v12
o2
o2
o2
n1.8
v5
v8
v12
o2
o2
o2
n4.26
v5
v8
v14
o2
o2
o2
n6.13
v5
v9
v15
o2
o2
o2
n3.76
v5
v14
v15
o2
o2
o2
n2.07
v6
v6
v7
o2
o2
o2
n8.48
v6
v6
v14
o2
o2
o2
n9.26
v6
v9
v13
o2
o2
o2
n8.7
v6
v9
v14
o2
o2
o2
n9.43
v6
v9
v15
o2
o2
o2
n3.27
v6
v10
v15
o2
o2
o2
n2.85
v6
v11
v12
o2
o2
o2
n0.73
v6
v12
v12
o2
o2
o2
n1.08
v6
v15
v15
o2
o2
o2
n6.2
v7
v8
v12
o2
o2
o2
n1.12
v7
v10
v13
o2
o2
o2
n1.76
v7
v11
v15
o2
o2
o2
n1.51
v7
v12
v13
o2
o2
o2
n3.16
v7
v12
v14
o2
o2
o2
n5.43
v8
v8
v12
o2
o2
o2
n0.77
v8
v8
v15
o2
o2
o2
n1.32
v8
v11
v12
o2
o2
o2
n7.41
v8
v12
v15
o2
o2
o2
n6.23
v8
v13
v14
o2
o2
o2
n1.04
v9
v11
v11
o2
o2
o2
n2.25
v9
v11
v15
o2
o2
o2
n4.98
v10
v10
v11
o2
o2
o2
n1.25
v10
v10
v15
o16
o2
o2
o2
n3.61
v10
v11
v11
o2
o2
o2
n8.45
v11
v11
v13
o2
o2
o2
n6.24
v11
v12
v12
o2
o2
o2
n9.86
v12
v12
v13
o2
o2
o2
n7.02
v13
v15
v15
k15
12
24
36
48
60
72
84
96
108
120
132
144
156
168
180
J0 16
0 0.07
1 -9.12
2 1.45
3 6
4 9.74
5 7.21
6 7.9
7 7.58
8 2.78
9 7.65
10 9.47
11 5.51
12 0.4
13 0.95
14 5.68
15 1.16
J1 16
0 3.44
1 -4.89
2 2.1
3 1.29
4 2.01
5 5.16
6 6.26
7 3.97
8 8.81
9 2.39
10 3.88
11 9.69
12 5.61
13 8.81
14 1.9
15 3.54
J2 16
0 2.85
1 9.15
2 5.39
3 3.73
4 -4.95
5 0.96
6 5.22
7 7.42
8 5.02
9 9.05
10 6.98
11 1.85
12 -6.25
13 2.74
14 0.76
15 4.64
J3 16
0 -7.67
1 7.57
2 8.54
3 -6.41
4 9.35
5 5.02
6 -2.17
7 0.52
8 7.97
9 2.33
10 6.51
11 -3.3
12 9.15
13 7.73
14 3.73
15 7.9
J4 16
0 4.7
1 2.9
2 3.45
3 -6.14
4 1.63
5 3.01
6 3.43
7 2.26
8 6.14
9 -6.34
10 2.25
11 -2.44
12 1.77
13 6.66
14 1.61
15 0.1
J5 16
0 8.91
1 3.93
2 5.59
3 -8.22
4 8.24
5 -9.42
6 3.76
7 9.12
8 4.69
9 7.46
10 9.81
11 6.43
12 2.23
13 6.3
14 9.84
15 5.33
J6 16
0 2.37
1 2.06
2 0.61
3 1.7
4 0.21
5 9.98
6 1.16
7 -3.23
8 4.97
9 4.37
10 5.68
11 0.3
12 5.29
13 6.55
14 9.41
15 6.95
J7 16
0 9.43
1 0.78
2 -2.97
3 3.66
4 -9.5
5 1.51
6 6.38
7 0.67
8 0.55
9 9.33
10 9.25
11 -0.98
12 2.76
13 4.22
14 8.02
15 8.13
J8 16
0 1.58
1 2.87
2 3.74
3 4.14
4 9.78
5 -0.82
6 7.74
7 5.77
8 5.13
9 4.54
10 9.82
11 0.16
12 7.58
13 0.55
14 7.47
15 1.23
J9 16
0 8.98
1 4.71
2 2.36
3 -6.08
4 9.79
5 9.19
6 1.37
7 6.71
8 8.04
9 9.84
10 4.57
11 7.49
12 4.74
13 5.35
14 5.27
15 3.85
J10 16
0 6.31
1 6.75
2 4.17
3 2.85
4 0.2
5 3.82
6 3.18
7 5.71
8 0.72
9 7.2
10 4
11 5.21
12 0.14
13 8.06
14 3.52
15 0.44
J11 16
0 8.16
1 1.58
2 1.05
3 -6.56
4 5.44
5 -4.34
6 0.89
7 5.84
8 8.01
9 6.96
10 4.08
11 1.97
12 6.56
13 7.52
14 -0.96
15 6.04
G0 16
0 6.86
1 5.39
2 6.66
3 -6.37
4 7.29
5 1.42
6 0.55
7 9.76
8 6.52
9 6.62
10 2.06
11 2.04
12 2.5
13 8.67
14 4.37
15 8.91
